cra-25/pei/pei.smt2
(declare-const Bracket_1 Real)
(declare-const Bracket_2 Real)
(declare-const Bracket_3 Real)
(declare-const Bracket_4 Real)
(declare-const Bracket_5 Real)
(declare-const FinalTaxes Real)
(declare-const Income Real)

(assert (= Bracket_1 (* 0.095 (ite (<= Income 33328.0) Income 33328.0))))
(assert (= Bracket_2 (* 0.1347 (ite (> Income 64656.0) (- 64656.0 33328.0) (ite (> Income 33328.0) (- Income 33328.0) 0.0)))))
(assert (= Bracket_3 (* 0.166 (ite (> Income 105000.0) (- 105000.0 64656.0) (ite (> Income 64656.0) (- Income 64656.0) 0.0)))))
(assert (= Bracket_4 (* 0.1762 (ite (> Income 140000.0) (- 140000.0 105000.0) (ite (> Income 105000.0) (- Income 105000.0) 0.0)))))
(assert (= Bracket_5 (* 0.19 (ite (> Income 140000.0) (- Income 140000.0) 0.0))))
(assert (= FinalTaxes (+ Bracket_1 Bracket_2 Bracket_3 Bracket_4 Bracket_5)))
